%%%mzn-stat: initTime=0.004095212
%%%mzn-stat: objective=315
%%%mzn-stat: nodes=718
%%%mzn-stat: restarts=0
%%%mzn-stat: peakDepth=79
%%%mzn-stat: solveTime=0.037208307
%%%mzn-stat: variables=380
%%%mzn-stat: propagators=262
%%%mzn-stat: failures=400
%%%mzn-stat: propagations=58844
%%%mzn-stat: nogoods=400
%%%mzn-stat: AverageConflictSize=7.6525
%%%mzn-stat: NumUnitNogoodsLearned=314
%%%mzn-stat: AverageLearnedNogoodLength=5.1475
%%%mzn-stat: AverageBacktrackAmount=0
%%%mzn-stat: AverageLbd=2.1475
%%%mzn-stat-end
maxleg = 315;
succ = array1d(1..20,[2, 15, 6, 13, 3, 7, 16, 9, 12, 17, 1, 14, 19, 11, 20, 4, 18, 8, 10, 5]);
% time elapsed: 1.48 s
----------
==========
% time elapsed: 1.48 s
%%%mzn-stat: initTime=0.004095212
%%%mzn-stat: objective=315
%%%mzn-stat: nodes=718
%%%mzn-stat: restarts=0
%%%mzn-stat: peakDepth=79
%%%mzn-stat: solveTime=0.037212109
%%%mzn-stat: variables=380
%%%mzn-stat: propagators=262
%%%mzn-stat: failures=400
%%%mzn-stat: propagations=58844
%%%mzn-stat: nogoods=400
%%%mzn-stat: AverageConflictSize=7.6525
%%%mzn-stat: NumUnitNogoodsLearned=314
%%%mzn-stat: AverageLearnedNogoodLength=5.1475
%%%mzn-stat: AverageBacktrackAmount=0
%%%mzn-stat: AverageLbd=2.1475
%%%mzn-stat-end
